COLUMNS

passenger_count
pickup_ID
dropoff_ID
request_time_sec
pickup_district
dropoff_district
LDuals
IDuals
vehicle_ID
pick_position
drop_position

REQUESTS_INFO
3      291       628       28869     87        189       194       194       22        1         3         
1      793       559       28861     290       189       157       157       151       1         3         
1      256       439       28886     87        189       149       149       168       1         3         
1      862       81        28856     290       98        176       176       208       1         3         
1      276       507       28686     87        189       334       334       226       1         3         
2      923       838       28865     290       290       198       198       235       1         2         
1      817       836       28876     290       290       144       144       252       1         2         
1      305       670       28881     299       280       133       133       338       1         2         
1      909       673       28864     290       189       218       218       350       1         2         
1      310       251       28848     127       127       187.5     187.5     425       1         2         
2      782       674       28866     291       189       129       129       446       1         2         
1      824       715       28874     291       131       103       103       483       1         2         
1      351       178       28884     52        178       164       164       523       1         2         
3      813       626       28876     290       189       155       155       631       1         2         
3      1077      1254      28835     84        84        275       275       637       1         2         
3      993       1106      28662     84        291       418       418       639       1         3         
2      1053      1025      28680     84        291       450       450       666       1         2         
2      908       925       28853     290       290       208       208       670       1         2         
1      906       484       28653     290       189       413       413       696       1         3         
1      1090      604       28869     291       189       215       215       722       1         2         
3      633       413       28874     189       52        139       139       732       1         2         
2      937       531       28864     291       189       170       170       785       1         2         
1      968       697       28860     290       189       180       180       854       1         3         
1      330       116       28782     127       9         228.5     228.5     858       1         2         
2      1000      652       28830     291       189       193       193       996       1         2         
3      992       599       28832     290       280       302       302       1089      1         2         
3      909       559       28823     290       189       259       259       1148      1         3         
1      906       696       28639     290       189       427       427       1152      1         2         
1      909       532       28790     290       199       292       292       1192      1         3         
3      794       535       28828     290       189       196       196       1205      1         2         
3      909       559       28823     290       189       259       259       1227      1         2         
1      865       397       28777     290       168       279       279       1236      1         2         
2      904       698       28832     290       189       223       223       1273      1         2         
1      850       602       28867     291       189       131       131       1282      1         4         
2      1087      973       28838     291       84        165       165       1283      1         2         
1      860       530       28776     290       189       220       220       1291      1         4         
3      1000      652       28830     291       189       193       193       1312      1         2         
3      817       1360      28834     290       129       186       186       1314      1         2         
2      928       527       28749     290       52        366       366       1328      1         4         
1      928       1016      28696     290       84        377       377       1328      2         3         
1      1001      696       28772     291       189       239       239       1339      1         2         
2      990       484       28820     290       189       274       274       1351      1         2         
3      1053      1025      28680     84        291       450       450       1361      1         2         
1      1091      599       28868     291       280       212       212       1371      1         3         
3      1168      982       28861     291       291       176       176       1382      1         2         
3      937       531       28864     291       189       170       170       1420      1         2         
1      961       738       28859     291       189       162       162       1425      1         2         
1      286       286       28871     299       299       125       125       1456      1         2         
1      344       347       28883     299       299       151       151       1472      1         2         
3      1097      1079      28727     84        84        374       374       1474      1         2         
1      1128      937       28890     291       291       0         0         0         0         0         
1      48        19        28890     98        98        0         0         0         0         0         
1      508       505       28890     199       52        0         0         0         0         0         
1      374       171       28890     119       286       0         0         0         0         0         
1      828       928       28890     291       290       0         0         0         0         0         
1      771       723       28890     290       290       0         0         0         0         0         
1      337       581       28891     277       189       0         0         0         0         0         
1      949       925       28891     290       290       0         0         0         0         0         
1      816       117       28891     290       286       0         0         0         0         0         
1      607       412       28891     189       52        0         0         0         0         0         
2      860       760       28891     290       291       0         0         0         0         0         
1      1053      968       28891     84        290       0         0         0         0         0         
2      1001      737       28891     291       189       0         0         0         0         0         
1      118       189       28893     286       286       0         0         0         0         0         
1      549       644       28893     52        131       0         0         0         0         0         
1      527       553       28893     52        189       0         0         0         0         0         
1      1244      838       28893     192       290       0         0         0         0         0         
2      433       805       28893     52        291       0         0         0         0         0         
3      415       726       28893     100       290       0         0         0         0         0         
2      415       726       28893     100       290       0         0         0         0         0         
4      412       373       28894     52        119       0         0         0         0         0         
1      850       718       28894     291       189       0         0         0         0         0         
1      438       742       28895     100       290       0         0         0         0         0         
1      43        22        28895     9         98        0         0         0         0         0         
4      19        19        28895     98        98        0         0         0         0         0         
1      874       782       28896     291       291       0         0         0         0         0         
3      1187      479       28896     291       52        0         0         0         0         0         
3      1187      479       28896     291       52        0         0         0         0         0         
3      466       675       28896     199       189       0         0         0         0         0         
3      466       675       28896     199       189       0         0         0         0         0         
1      662       268       28896     131       299       0         0         0         0         0         
1      597       720       28896     131       290       0         0         0         0         0         
1      888       583       28896     290       189       0         0         0         0         0         
1      270       116       28897     127       9         0         0         0         0         0         
1      874       649       28897     291       189       0         0         0         0         0         
1      229       217       28897     266       87        0         0         0         0         0         
1      554       530       28897     189       189       0         0         0         0         0         
1      64        526       28897     98        52        0         0         0         0         0         
2      837       232       28898     290       266       0         0         0         0         0         
1      208       135       28898     286       286       0         0         0         0         0         
1      908       1218      28898     290       84        0         0         0         0         0         
1      743       698       28898     290       189       0         0         0         0         0         
1      486       603       28899     199       189       0         0         0         0         0         
1      504       616       28899     52        131       0         0         0         0         0         
1      871       923       28899     291       290       0         0         0         0         0         
3      155       161       28900     286       178       0         0         0         0         0         
1      780       189       28900     291       286       0         0         0         0         0         
1      699       583       28900     290       189       0         0         0         0         0         
1      723       723       28900     290       290       0         0         0         0         0         
3      155       161       28900     286       178       0         0         0         0         0         
2      905       116       28901     290       9         0         0         0         0         0         
2      723       551       28901     290       189       0         0         0         0         0         
1      392       552       28901     52        189       0         0         0         0         0         
3      847       738       28901     291       189       0         0         0         0         0         
1      509       439       28901     199       189       0         0         0         0         0         
1      532       484       28901     199       189       0         0         0         0         0         
1      737       1208      28901     189       192       0         0         0         0         0         
1      276       271       28902     87        127       0         0         0         0         0         
1      838       628       28902     290       189       0         0         0         0         0         
1      504       393       28902     52        52        0         0         0         0         0         
1      756       599       28903     131       280       0         0         0         0         0         
1      415       531       28903     100       189       0         0         0         0         0         
2      1218      794       28903     84        290       0         0         0         0         0         
1      390       413       28904     52        52        0         0         0         0         0         
4      500       555       28904     52        199       0         0         0         0         0         
2      631       676       28904     189       189       0         0         0         0         0         
1      972       648       28904     290       189       0         0         0         0         0         
1      883       652       28904     290       189       0         0         0         0         0         
1      772       837       28905     290       290       0         0         0         0         0         
1      984       622       28905     291       280       0         0         0         0         0         
1      968       788       28905     290       290       0         0         0         0         0         
2      527       332       28905     52        87        0         0         0         0         0         
1      549       689       28905     52        131       0         0         0         0         0         
3      1117      994       28905     84        84        0         0         0         0         0         
3      1117      994       28905     84        84        0         0         0         0         0         
1      721       1181      28906     290       84        0         0         0         0         0         
1      421       581       28906     168       189       0         0         0         0         0         
1      603       691       28906     189       131       0         0         0         0         0         
1      691       695       28906     131       189       0         0         0         0         0         
1      348       555       28906     299       199       0         0         0         0         0         
1      607       603       28907     189       189       0         0         0         0         0         
1      1066      892       28907     291       291       0         0         0         0         0         
1      619       444       28907     131       168       0         0         0         0         0         
1      377       484       28907     168       189       0         0         0         0         0         
1      669       527       28907     280       52        0         0         0         0         0         
3      158       1519      28907     174       296       0         0         0         0         0         
3      158       1519      28907     174       296       0         0         0         0         0         
1      498       719       28908     52        189       0         0         0         0         0         
3      549       615       28908     52        131       0         0         0         0         0         
2      549       615       28908     52        131       0         0         0         0         0         
1      532       417       28908     199       100       0         0         0         0         0         
2      991       649       28909     290       189       0         0         0         0         0         
1      882       766       28909     290       290       0         0         0         0         0         
1      582       1530      28909     189       296       0         0         0         0         0         
1      488       676       28909     199       189       0         0         0         0         0         
2      355       575       28909     119       189       0         0         0         0         0         
1      443       816       28910     168       290       0         0         0         0         0         
1      794       605       28910     290       189       0         0         0         0         0         
3      927       770       28910     290       290       0         0         0         0         0         
3      437       544       28910     100       52        0         0         0         0         0         
3      437       544       28910     100       52        0         0         0         0         0         
2      927       770       28910     290       290       0         0         0         0         0         
3      663       757       28911     131       131       0         0         0         0         0         
2      663       757       28911     131       131       0         0         0         0         0         
1      1022      1328      28912     291       129       0         0         0         0         0         
2      415       209       28912     100       266       0         0         0         0         0         
1      419       604       28912     168       189       0         0         0         0         0         
1      925       626       28912     290       189       0         0         0         0         0         
3      295       544       28913     87        52        0         0         0         0         0         
1      461       579       28913     189       189       0         0         0         0         0         
2      295       544       28913     87        52        0         0         0         0         0         
1      175       603       28914     266       189       0         0         0         0         0         
1      395       604       28914     100       189       0         0         0         0         0         
1      413       600       28914     52        280       0         0         0         0         0         
1      487       157       28914     199       54        0         0         0         0         0         
1      842       650       28914     290       189       0         0         0         0         0         
1      768       695       28914     290       189       0         0         0         0         0         
1      909       772       28914     290       290       0         0         0         0         0         
4      760       671       28915     291       280       0         0         0         0         0         
1      304       579       28915     299       189       0         0         0         0         0         
1      690       574       28915     131       189       0         0         0         0         0         
1      894       1517      28915     291       296       0         0         0         0         0         
1      835       897       28915     290       291       0         0         0         0         0         
3      527       534       28916     52        199       0         0         0         0         0         
1      557       629       28916     189       189       0         0         0         0         0         
1      722       695       28916     290       189       0         0         0         0         0         
2      580       97        28916     189       9         0         0         0         0         0         
3      134       247       28916     9         266       0         0         0         0         0         
1      904       972       28917     290       290       0         0         0         0         0         
1      789       604       28917     290       189       0         0         0         0         0         
2      314       624       28917     119       189       0         0         0         0         0         
1      781       580       28917     291       189       0         0         0         0         0         
1      811       649       28918     290       189       0         0         0         0         0         
2      78        351       28918     9         52        0         0         0         0         0         
3      78        351       28918     9         52        0         0         0         0         0         
2      781       651       28919     291       189       0         0         0         0         0         
1      621       718       28919     280       189       0         0         0         0         0         
1      720       1194      28919     290       129       0         0         0         0         0         
3      781       651       28919     291       189       0         0         0         0         0         
